36998 41184 
37288 40950 
38937 40272 
39148 40111 
39835 39655 
39198 40089 
38669 40446 
39020 40129 
37902 40774 
37279 41036 
40002 39483 
38425 40575 
38053 40753 
38532 40534 
38257 40602 
37857 40839 
38844 40311 
38226 40694 
37522 40949 
37572 40894 
37287 40961 
38603 40476 
38876 40277 
39314 40022 
39485 39992 
38739 40396 
39658 39765 
39521 39884 
39567 39867 
39899 39526 
39652 39820 
40009 39432 
39774 39729 
39215 40044 
38977 40141 
39261 40027 
40104 39311 
40706 38979 
39927 39499 
40635 39093 
40058 39412 
39877 39651 
40428 39231 
41136 38398 
40972 38590 
40737 38887 
41065 38512 
40830 38809 
40901 38704 
40096 39402 
40206 39294 
41355 37975 
41320 38146 
41167 38306 
41156 38338 
41249 38260 
41096 38420 
40929 38592 
40127 39310 
41085 38443 
41351 38054 
41280 38168 
41482 37925 
41513 37833 
